1 3 100 181910.21
1 3 200 188717.03
1 3 300 174208.23
2 3 100 252272.08
2 3 200 283830.22
2 3 300 261375.17
3 3 100 291732.58
3 3 200 294720.06
3 3 300 305072.78
4 3 100 277693.37
4 3 200 293732.15
4 3 300 319002.53
5 3 100 293511.15
5 3 200 298327.28
5 3 300 297372.08
